g3 0 1 0	# problem linear
 24 20 1 0 20	# vars, constraints, objectives, ranges, eqns
 0 1	# nonlinear constraints, objectives
 0 0	# network constraints: nonlinear, linear
 0 20 0	# nonlinear vars in constraints, objectives, both
 0 0 0 1	# linear network variables; functions; arith, flags
 0 0 0 0 0	# discrete variables: binary, integer, nonlinear (b,c,o)
 100 20	# nonzeros in Jacobian, gradients
 0 0	# max name lengths: constraints, variables
 0 0 0 0 0	# common exprs: b,c,o,c1,o1
b
0 -100 100
0 -100 100
0 -100 100
0 -100 100
0 -100 100
0 -100 100
0 -100 100
0 -100 100
0 -100 100
0 -100 100
0 -100 100
0 -100 100
0 -100 100
0 -100 100
0 -100 100
0 -100 100
0 -100 100
0 -100 100
0 -100 100
0 -100 100
3
3
3
3
x14
2 -92
3 -94
5 -94
6 -96
7 -83
8 -90
9 -93
16 -84
17 -83
18 -92
20 1
21 1
22 1
23 1
r
4 99
4 93
4 99
4 97
4 90
4 96
4 93
4 130
4 118
4 88
4 89
4 93
4 94
4 75
4 84
4 91
4 100
4 98
4 101
4 80
C0
n0
C1
n0
C2
n0
C3
n0
C4
n0
C5
n0
C6
n0
C7
n0
C8
n0
C9
n0
C10
n0
C11
n0
C12
n0
C13
n0
C14
n0
C15
n0
C16
n0
C17
n0
C18
n0
C19
n0
O0 0
o54
20
o15
v0
o15
v1
o15
v2
o15
v3
o15
v4
o15
v5
o15
v6
o15
v7
o15
v8
o15
v9
o15
v10
o15
v11
o15
v12
o15
v13
o15
v14
o15
v15
o15
v16
o15
v17
o15
v18
o15
v19
k23
1
2
3
4
5
6
7
8
9
10
11
12
13
14
15
16
17
18
19
20
40
60
80
J0 5
0 1
20 1
21 85
22 76
23 44
J1 5
1 1
20 1
21 82
22 78
23 42
J2 5
2 1
20 1
21 75
22 73
23 42
J3 5
3 1
20 1
21 74
22 72
23 44
J4 5
4 1
20 1
21 76
22 73
23 43
J5 5
5 1
20 1
21 74
22 69
23 46
J6 5
6 1
20 1
21 73
22 69
23 46
J7 5
7 1
20 1
21 96
22 80
23 36
J8 5
8 1
20 1
21 93
22 78
23 36
J9 5
9 1
20 1
21 70
22 73
23 37
J10 5
10 1
20 1
21 82
22 71
23 46
J11 5
11 1
20 1
21 80
22 72
23 45
J12 5
12 1
20 1
21 77
22 76
23 42
J13 5
13 1
20 1
21 67
22 76
23 50
J14 5
14 1
20 1
21 82
22 70
23 48
J15 5
15 1
20 1
21 76
22 76
23 41
J16 5
16 1
20 1
21 74
22 78
23 31
J17 5
17 1
20 1
21 71
22 80
23 29
J18 5
18 1
20 1
21 70
22 83
23 39
J19 5
19 1
20 1
21 64
22 79
23 38
G0 20
0 0
1 0
2 0
3 0
4 0
5 0
6 0
7 0
8 0
9 0
10 0
11 0
12 0
13 0
14 0
15 0
16 0
17 0
18 0
19 0
